unsat
((set-logic NIA)
(proof
(let (($x128 (exists ((q Int) (r Int) (y Int) )(! (let ((?x36 (* q00 y00)))
 (let ((?x87 (* (- 1) ?x36)))
 (let ((?x63 (* (- 1) r00)))
 (let ((?x65 (* (- 1) y00)))
 (let (($x130 (not (= (+ r ?x65 ?x63 ?x87 (* y00 (+ 1 q))) 0))))
 (let (($x176 (= (+ r ?x63 ?x87 (* y00 q)) 0)))
 (let ((?x177 (* (- 1) y)))
 (let ((?x116 (+ y00 ?x177)))
 (let (($x179 (= ?x116 0)))
 (and $x179 $x176 $x130)))))))))) :qid k!31))
 ))
 (let (($x152 (exists ((q Int) (r Int) (y Int) )(! false :qid k!31))
 ))
 (let ((@x160 (elim-unused (= $x152 false))))
 (let ((?x202 (lambda ((q Int) (r Int) (y Int) )(let ((?x36 (* q00 y00)))
 (let ((?x87 (* (- 1) ?x36)))
 (let ((?x63 (* (- 1) r00)))
 (let ((?x65 (* (- 1) y00)))
 (let (($x130 (not (= (+ r ?x65 ?x63 ?x87 (* y00 (+ 1 q))) 0))))
 (let (($x176 (= (+ r ?x63 ?x87 (* y00 q)) 0)))
 (let ((?x177 (* (- 1) y)))
 (let ((?x116 (+ y00 ?x177)))
 (let (($x179 (= ?x116 0)))
 (let (($x209 (and $x179 $x176 $x130)))
 (let (($x99 (= (+ r ?x63 (* q y00) (* (- 1) (* y00 q00))) 0)))
 (let (($x107 (not $x99)))
 (let (($x74 (= (+ y ?x65) 0)))
 (let (($x142 (and $x74 $x99 $x107)))
 (let ((@x146 (rewrite (= $x142 false))))
 (let ((@x168 (monotonicity (rewrite (= ?x116 (+ ?x177 y00))) (= $x179 (= (+ ?x177 y00) 0)))))
 (let ((@x184 (trans @x168 (rewrite (= (= (+ ?x177 y00) 0) $x74)) (= $x179 $x74))))
 (let ((@x215 (monotonicity @x184 (rewrite (= $x176 $x99)) (rewrite (= $x130 $x107)) (= $x209 $x142))))
 (trans @x215 @x146 (= $x209 false)))))))))))))))))))))
 ))
 (let ((@x211 (trans (quant-intro (proof-bind ?x202) (= $x128 $x152)) @x160 (= $x128 false))))
 (let (($x172 (exists ((q Int) (r Int) (y Int) )(! (let ((?x36 (* q00 y00)))
 (let ((?x87 (* (- 1) ?x36)))
 (let ((?x63 (* (- 1) r00)))
 (let ((?x65 (* (- 1) y00)))
 (let (($x130 (not (= (+ r ?x65 ?x63 ?x87 (* y00 (+ 1 q))) 0))))
 (let (($x176 (= (+ r ?x63 ?x87 (* y00 q)) 0)))
 (and (= (+ ?x65 y) 0) $x176 $x130))))))) :qid k!31))
 ))
 (let ((?x150 (lambda ((q Int) (r Int) (y Int) )(let ((?x36 (* q00 y00)))
 (let ((?x87 (* (- 1) ?x36)))
 (let ((?x63 (* (- 1) r00)))
 (let ((?x65 (* (- 1) y00)))
 (let (($x130 (not (= (+ r ?x65 ?x63 ?x87 (* y00 (+ 1 q))) 0))))
 (let (($x176 (= (+ r ?x63 ?x87 (* y00 q)) 0)))
 (let ((?x177 (* (- 1) y)))
 (let ((?x116 (+ y00 ?x177)))
 (let (($x179 (= ?x116 0)))
 (let (($x209 (and $x179 $x176 $x130)))
 (let (($x169 (and (= (+ ?x65 y) 0) $x176 $x130)))
 (rewrite (= $x169 $x209))))))))))))))
 ))
 (let (($x60 (exists ((q Int) (r Int) (y Int) )(! (let ((?x30 (* (- 1) y00)))
 (let ((?x42 (+ ?x30 y00)))
 (let ((?x45 (- r y00)))
 (let ((?x54 (- 9)))
 (let ((?x55 (* ?x54 ?x45 ?x45 ?x42)))
 (let (($x56 (= ?x55 0)))
 (let (($x57 (not $x56)))
 (let (($x51 (= (+ (- (- ?x45 r00) (* q00 y00)) (* (+ q 1) y00)) 0)))
 (let (($x52 (not $x51)))
 (let (($x43 (= ?x42 0)))
 (let (($x44 (not $x43)))
 (let (($x58 (or $x44 $x52 $x57)))
 (let (($x41 (= (+ (- (- r r00) (* q00 y00)) (* q y00)) 0)))
 (let (($x33 (= (+ ?x30 y) 0)))
 (and $x33 $x41 $x58))))))))))))))) :qid k!31))
 ))
 (let ((?x175 (lambda ((q Int) (r Int) (y Int) )(let ((?x36 (* q00 y00)))
 (let ((?x87 (* (- 1) ?x36)))
 (let ((?x63 (* (- 1) r00)))
 (let ((?x65 (* (- 1) y00)))
 (let (($x130 (not (= (+ r ?x65 ?x63 ?x87 (* y00 (+ 1 q))) 0))))
 (let (($x176 (= (+ r ?x63 ?x87 (* y00 q)) 0)))
 (let (($x169 (and (= (+ ?x65 y) 0) $x176 $x130)))
 (let ((?x30 (* (- 1) y00)))
 (let ((?x42 (+ ?x30 y00)))
 (let ((?x45 (- r y00)))
 (let ((?x54 (- 9)))
 (let ((?x55 (* ?x54 ?x45 ?x45 ?x42)))
 (let (($x56 (= ?x55 0)))
 (let (($x57 (not $x56)))
 (let (($x52 (not (= (+ (- (- ?x45 r00) ?x36) (* (+ q 1) y00)) 0))))
 (let (($x43 (= ?x42 0)))
 (let (($x44 (not $x43)))
 (let (($x58 (or $x44 $x52 $x57)))
 (let (($x41 (= (+ (- (- r r00) ?x36) (* q y00)) 0)))
 (let (($x33 (= (+ ?x30 y) 0)))
 (let (($x59 (and $x33 $x41 $x58)))
 (rewrite (= $x59 $x169))))))))))))))))))))))))
 ))
 (let ((@x61 (asserted $x60)))
 (let ((@x140 (mp (mp @x61 (quant-intro (proof-bind ?x175) (= $x60 $x172)) $x172) (rewrite (= $x172 $x172)) $x172)))
 (mp (mp @x140 (quant-intro (proof-bind ?x150) (= $x172 $x128)) $x128) @x211 false))))))))))))))

(:max-memory   3.32
 :memory       3.01
 :mk-bool-var  6
 :num-allocs   959077
 :num-checks   1
 :rlimit-count 365
 :time         0.01
 :total-time   0.01)
